<?xml version="1.0" encoding="UTF-8"?><osil xmlns="os.optimizationservices.org"   xmlns:xsi="http://www.w3.org/2001/XMLSchema-instance" xsi:schemaLocation="os.optimizationservices.org http://www.optimizationservices.org/schemas/2.0/OSiL.xsd" ><instanceHeader><name>q_30_0_75_5</name></instanceHeader><instanceData><variables numberOfVariables="30"><var name="x1" ub="1"/><var name="x2" ub="1"/><var name="x3" ub="1"/><var name="x4" ub="1"/><var name="x5" ub="1"/><var name="x6" ub="1"/><var name="x7" ub="1"/><var name="x8" ub="1"/><var name="x9" ub="1"/><var name="x10" ub="1"/><var name="x11" ub="1"/><var name="x12" ub="1"/><var name="x13" ub="1"/><var name="x14" ub="1"/><var name="x15" ub="1"/><var name="x16" ub="1"/><var name="x17" ub="1"/><var name="x18" ub="1"/><var name="x19" ub="1"/><var name="x20" ub="1"/><var name="x21" ub="1"/><var name="x22" ub="1"/><var name="x23" ub="1"/><var name="x24" ub="1"/><var name="x25" ub="1"/><var name="x26" ub="1"/><var name="x27" ub="1"/><var name="x28" ub="1"/><var name="x29" ub="1"/><var name="x30" ub="1"/></variables><objectives numberOfObjectives="1"><obj maxOrMin="min" name="defObj_x31" numberOfObjCoef="30"><coef idx="0">.1799</coef><coef idx="1">-.3306</coef><coef idx="2">.3269</coef><coef idx="3">.5563</coef><coef idx="4">4.27e-2</coef><coef idx="5">-.5169</coef><coef idx="6">-.1694</coef><coef idx="7">-.8772</coef><coef idx="8">-.6835</coef><coef idx="9">3.61e-2</coef><coef idx="10">-.4938</coef><coef idx="11">-8.24e-2</coef><coef idx="12">-.803</coef><coef idx="13">-.1227</coef><coef idx="14">.3447</coef><coef idx="15">-.5165</coef><coef idx="16">.8204</coef><coef idx="17">-4.19e-2</coef><coef idx="18">.7291</coef><coef idx="19">.1793</coef><coef idx="20">-.2906</coef><coef idx="21">-.4859</coef><coef idx="22">.7745</coef><coef idx="23">.5955</coef><coef idx="24">-.5433</coef><coef idx="25">9.63e-2</coef><coef idx="26">.9131</coef><coef idx="27">-.9212</coef><coef idx="28">-.5989</coef><coef idx="29">.3632</coef></obj></objectives><quadraticCoefficients  numberOfQuadraticTerms="240" ><qTerm  idx="-1"  idxOne="0"  idxTwo="0"  coef=".6878"/><qTerm  idx="-1"  idxOne="0"  idxTwo="3"  coef=".12"/><qTerm  idx="-1"  idxOne="0"  idxTwo="5"  coef="-.8755"/><qTerm  idx="-1"  idxOne="0"  idxTwo="6"  coef="-.2555"/><qTerm  idx="-1"  idxOne="0"  idxTwo="7"  coef="-.5743"/><qTerm  idx="-1"  idxOne="0"  idxTwo="8"  coef="-.5735"/><qTerm  idx="-1"  idxOne="0"  idxTwo="12"  coef="-.6477"/><qTerm  idx="-1"  idxOne="0"  idxTwo="14"  coef="7.e-4"/><qTerm  idx="-1"  idxOne="0"  idxTwo="16"  coef="8.96e-2"/><qTerm  idx="-1"  idxOne="0"  idxTwo="18"  coef=".1403"/><qTerm  idx="-1"  idxOne="0"  idxTwo="19"  coef="3.92e-2"/><qTerm  idx="-1"  idxOne="0"  idxTwo="20"  coef="-.9063"/><qTerm  idx="-1"  idxOne="0"  idxTwo="21"  coef="-.3817"/><qTerm  idx="-1"  idxOne="0"  idxTwo="23"  coef=".8622"/><qTerm  idx="-1"  idxOne="0"  idxTwo="24"  coef="3.31e-2"/><qTerm  idx="-1"  idxOne="0"  idxTwo="26"  coef="-.1539"/><qTerm  idx="-1"  idxOne="0"  idxTwo="27"  coef="-.684"/><qTerm  idx="-1"  idxOne="0"  idxTwo="28"  coef=".8427"/><qTerm  idx="-1"  idxOne="0"  idxTwo="29"  coef=".679"/><qTerm  idx="-1"  idxOne="1"  idxTwo="4"  coef="-.8744"/><qTerm  idx="-1"  idxOne="1"  idxTwo="6"  coef="-.5763"/><qTerm  idx="-1"  idxOne="1"  idxTwo="7"  coef=".131"/><qTerm  idx="-1"  idxOne="1"  idxTwo="8"  coef=".7207"/><qTerm  idx="-1"  idxOne="1"  idxTwo="9"  coef=".2711"/><qTerm  idx="-1"  idxOne="1"  idxTwo="10"  coef=".901"/><qTerm  idx="-1"  idxOne="1"  idxTwo="11"  coef="-1.42e-2"/><qTerm  idx="-1"  idxOne="1"  idxTwo="14"  coef=".7093"/><qTerm  idx="-1"  idxOne="1"  idxTwo="17"  coef="-.6987"/><qTerm  idx="-1"  idxOne="1"  idxTwo="19"  coef=".591"/><qTerm  idx="-1"  idxOne="1"  idxTwo="21"  coef=".7248"/><qTerm  idx="-1"  idxOne="1"  idxTwo="22"  coef="-.3342"/><qTerm  idx="-1"  idxOne="1"  idxTwo="23"  coef=".2565"/><qTerm  idx="-1"  idxOne="1"  idxTwo="27"  coef="5.06e-2"/><qTerm  idx="-1"  idxOne="1"  idxTwo="28"  coef=".1018"/><qTerm  idx="-1"  idxOne="2"  idxTwo="2"  coef=".6964"/><qTerm  idx="-1"  idxOne="2"  idxTwo="4"  coef="-.3124"/><qTerm  idx="-1"  idxOne="2"  idxTwo="6"  coef="-9.06e-2"/><qTerm  idx="-1"  idxOne="2"  idxTwo="7"  coef="-.4594"/><qTerm  idx="-1"  idxOne="2"  idxTwo="8"  coef="-.7137"/><qTerm  idx="-1"  idxOne="2"  idxTwo="12"  coef=".6835"/><qTerm  idx="-1"  idxOne="2"  idxTwo="13"  coef="-.9256"/><qTerm  idx="-1"  idxOne="2"  idxTwo="14"  coef=".8048"/><qTerm  idx="-1"  idxOne="2"  idxTwo="15"  coef="-.8525"/><qTerm  idx="-1"  idxOne="2"  idxTwo="16"  coef=".6184"/><qTerm  idx="-1"  idxOne="2"  idxTwo="20"  coef=".6039"/><qTerm  idx="-1"  idxOne="2"  idxTwo="29"  coef="-.1299"/><qTerm  idx="-1"  idxOne="3"  idxTwo="3"  coef=".7409"/><qTerm  idx="-1"  idxOne="3"  idxTwo="7"  coef=".7098"/><qTerm  idx="-1"  idxOne="3"  idxTwo="10"  coef="-.7156"/><qTerm  idx="-1"  idxOne="3"  idxTwo="11"  coef=".7937"/><qTerm  idx="-1"  idxOne="3"  idxTwo="14"  coef="-.9671"/><qTerm  idx="-1"  idxOne="3"  idxTwo="15"  coef="-.8201"/><qTerm  idx="-1"  idxOne="3"  idxTwo="16"  coef="-.9828"/><qTerm  idx="-1"  idxOne="3"  idxTwo="18"  coef="-.2199"/><qTerm  idx="-1"  idxOne="3"  idxTwo="20"  coef="-.1975"/><qTerm  idx="-1"  idxOne="3"  idxTwo="21"  coef=".6526"/><qTerm  idx="-1"  idxOne="3"  idxTwo="22"  coef=".8052"/><qTerm  idx="-1"  idxOne="3"  idxTwo="25"  coef=".2971"/><qTerm  idx="-1"  idxOne="3"  idxTwo="28"  coef=".1198"/><qTerm  idx="-1"  idxOne="3"  idxTwo="29"  coef=".217"/><qTerm  idx="-1"  idxOne="4"  idxTwo="4"  coef="7.9e-3"/><qTerm  idx="-1"  idxOne="4"  idxTwo="5"  coef="-.3018"/><qTerm  idx="-1"  idxOne="4"  idxTwo="7"  coef=".9843"/><qTerm  idx="-1"  idxOne="4"  idxTwo="9"  coef="-.9696"/><qTerm  idx="-1"  idxOne="4"  idxTwo="10"  coef=".8791"/><qTerm  idx="-1"  idxOne="4"  idxTwo="11"  coef="-.9214"/><qTerm  idx="-1"  idxOne="4"  idxTwo="15"  coef="-.6654"/><qTerm  idx="-1"  idxOne="4"  idxTwo="19"  coef=".8961"/><qTerm  idx="-1"  idxOne="4"  idxTwo="22"  coef=".7488"/><qTerm  idx="-1"  idxOne="4"  idxTwo="23"  coef="-.816"/><qTerm  idx="-1"  idxOne="4"  idxTwo="26"  coef=".7283"/><qTerm  idx="-1"  idxOne="4"  idxTwo="27"  coef=".7735"/><qTerm  idx="-1"  idxOne="5"  idxTwo="8"  coef=".4313"/><qTerm  idx="-1"  idxOne="5"  idxTwo="9"  coef="-.8995"/><qTerm  idx="-1"  idxOne="5"  idxTwo="11"  coef="-2.42e-2"/><qTerm  idx="-1"  idxOne="5"  idxTwo="12"  coef=".1137"/><qTerm  idx="-1"  idxOne="5"  idxTwo="13"  coef="-8.07e-2"/><qTerm  idx="-1"  idxOne="5"  idxTwo="15"  coef=".3716"/><qTerm  idx="-1"  idxOne="5"  idxTwo="21"  coef="-.9041"/><qTerm  idx="-1"  idxOne="5"  idxTwo="23"  coef="-4.94e-2"/><qTerm  idx="-1"  idxOne="5"  idxTwo="24"  coef=".8577"/><qTerm  idx="-1"  idxOne="5"  idxTwo="27"  coef=".4838"/><qTerm  idx="-1"  idxOne="5"  idxTwo="28"  coef=".9976"/><qTerm  idx="-1"  idxOne="6"  idxTwo="6"  coef=".7792"/><qTerm  idx="-1"  idxOne="6"  idxTwo="9"  coef="-.3619"/><qTerm  idx="-1"  idxOne="6"  idxTwo="13"  coef=".9372"/><qTerm  idx="-1"  idxOne="6"  idxTwo="16"  coef="-.3207"/><qTerm  idx="-1"  idxOne="6"  idxTwo="18"  coef=".8329"/><qTerm  idx="-1"  idxOne="6"  idxTwo="20"  coef="-.746"/><qTerm  idx="-1"  idxOne="6"  idxTwo="24"  coef=".5825"/><qTerm  idx="-1"  idxOne="6"  idxTwo="26"  coef=".9976"/><qTerm  idx="-1"  idxOne="6"  idxTwo="29"  coef="-.1785"/><qTerm  idx="-1"  idxOne="7"  idxTwo="8"  coef="-4.03e-2"/><qTerm  idx="-1"  idxOne="7"  idxTwo="9"  coef="-.5285"/><qTerm  idx="-1"  idxOne="7"  idxTwo="11"  coef="-.3191"/><qTerm  idx="-1"  idxOne="7"  idxTwo="14"  coef=".4136"/><qTerm  idx="-1"  idxOne="7"  idxTwo="18"  coef="-.4137"/><qTerm  idx="-1"  idxOne="7"  idxTwo="20"  coef=".3309"/><qTerm  idx="-1"  idxOne="7"  idxTwo="23"  coef=".8559"/><qTerm  idx="-1"  idxOne="7"  idxTwo="26"  coef=".9334"/><qTerm  idx="-1"  idxOne="7"  idxTwo="27"  coef=".1038"/><qTerm  idx="-1"  idxOne="7"  idxTwo="29"  coef="-.6685"/><qTerm  idx="-1"  idxOne="8"  idxTwo="9"  coef="-.2205"/><qTerm  idx="-1"  idxOne="8"  idxTwo="12"  coef=".8979"/><qTerm  idx="-1"  idxOne="8"  idxTwo="13"  coef=".9253"/><qTerm  idx="-1"  idxOne="8"  idxTwo="15"  coef="-.7958"/><qTerm  idx="-1"  idxOne="8"  idxTwo="16"  coef="-.2908"/><qTerm  idx="-1"  idxOne="8"  idxTwo="17"  coef="-.3804"/><qTerm  idx="-1"  idxOne="8"  idxTwo="19"  coef="-.2418"/><qTerm  idx="-1"  idxOne="8"  idxTwo="20"  coef=".3039"/><qTerm  idx="-1"  idxOne="8"  idxTwo="22"  coef="-4.73e-2"/><qTerm  idx="-1"  idxOne="8"  idxTwo="26"  coef="-.2491"/><qTerm  idx="-1"  idxOne="8"  idxTwo="27"  coef=".9586"/><qTerm  idx="-1"  idxOne="9"  idxTwo="10"  coef="-.6003"/><qTerm  idx="-1"  idxOne="9"  idxTwo="12"  coef=".5236"/><qTerm  idx="-1"  idxOne="9"  idxTwo="13"  coef="-.6153"/><qTerm  idx="-1"  idxOne="9"  idxTwo="14"  coef="-.4986"/><qTerm  idx="-1"  idxOne="9"  idxTwo="18"  coef="-.8059"/><qTerm  idx="-1"  idxOne="9"  idxTwo="19"  coef="-.5445"/><qTerm  idx="-1"  idxOne="9"  idxTwo="22"  coef=".5581"/><qTerm  idx="-1"  idxOne="9"  idxTwo="23"  coef=".821"/><qTerm  idx="-1"  idxOne="9"  idxTwo="26"  coef=".9429"/><qTerm  idx="-1"  idxOne="9"  idxTwo="28"  coef="-.5765"/><qTerm  idx="-1"  idxOne="9"  idxTwo="29"  coef="-.3061"/><qTerm  idx="-1"  idxOne="10"  idxTwo="10"  coef=".7112"/><qTerm  idx="-1"  idxOne="10"  idxTwo="12"  coef="-.9048"/><qTerm  idx="-1"  idxOne="10"  idxTwo="13"  coef=".6349"/><qTerm  idx="-1"  idxOne="10"  idxTwo="17"  coef=".5005"/><qTerm  idx="-1"  idxOne="10"  idxTwo="18"  coef="-.3052"/><qTerm  idx="-1"  idxOne="10"  idxTwo="20"  coef="-.7796"/><qTerm  idx="-1"  idxOne="10"  idxTwo="22"  coef="-.2323"/><qTerm  idx="-1"  idxOne="10"  idxTwo="23"  coef="-.1328"/><qTerm  idx="-1"  idxOne="10"  idxTwo="24"  coef=".6701"/><qTerm  idx="-1"  idxOne="10"  idxTwo="26"  coef=".6946"/><qTerm  idx="-1"  idxOne="10"  idxTwo="27"  coef=".4003"/><qTerm  idx="-1"  idxOne="10"  idxTwo="29"  coef="-.6794"/><qTerm  idx="-1"  idxOne="11"  idxTwo="11"  coef=".695"/><qTerm  idx="-1"  idxOne="11"  idxTwo="12"  coef="-.6787"/><qTerm  idx="-1"  idxOne="11"  idxTwo="15"  coef="-.7436"/><qTerm  idx="-1"  idxOne="11"  idxTwo="16"  coef=".4042"/><qTerm  idx="-1"  idxOne="11"  idxTwo="17"  coef=".3019"/><qTerm  idx="-1"  idxOne="11"  idxTwo="18"  coef="-.3193"/><qTerm  idx="-1"  idxOne="11"  idxTwo="20"  coef="-.4433"/><qTerm  idx="-1"  idxOne="11"  idxTwo="21"  coef="-.5216"/><qTerm  idx="-1"  idxOne="11"  idxTwo="22"  coef=".8652"/><qTerm  idx="-1"  idxOne="11"  idxTwo="23"  coef=".6401"/><qTerm  idx="-1"  idxOne="11"  idxTwo="24"  coef="6.53e-2"/><qTerm  idx="-1"  idxOne="11"  idxTwo="25"  coef="-.1219"/><qTerm  idx="-1"  idxOne="11"  idxTwo="29"  coef=".8175"/><qTerm  idx="-1"  idxOne="12"  idxTwo="13"  coef=".7173"/><qTerm  idx="-1"  idxOne="12"  idxTwo="14"  coef="5.79e-2"/><qTerm  idx="-1"  idxOne="12"  idxTwo="15"  coef=".2197"/><qTerm  idx="-1"  idxOne="12"  idxTwo="17"  coef="-.1751"/><qTerm  idx="-1"  idxOne="12"  idxTwo="20"  coef="-.4539"/><qTerm  idx="-1"  idxOne="12"  idxTwo="21"  coef=".6875"/><qTerm  idx="-1"  idxOne="12"  idxTwo="24"  coef=".3553"/><qTerm  idx="-1"  idxOne="12"  idxTwo="26"  coef=".3546"/><qTerm  idx="-1"  idxOne="12"  idxTwo="27"  coef=".2915"/><qTerm  idx="-1"  idxOne="12"  idxTwo="29"  coef="-.1419"/><qTerm  idx="-1"  idxOne="13"  idxTwo="14"  coef=".8974"/><qTerm  idx="-1"  idxOne="13"  idxTwo="15"  coef="-.7709"/><qTerm  idx="-1"  idxOne="13"  idxTwo="16"  coef=".7025"/><qTerm  idx="-1"  idxOne="13"  idxTwo="18"  coef=".2871"/><qTerm  idx="-1"  idxOne="13"  idxTwo="20"  coef="-.8686"/><qTerm  idx="-1"  idxOne="13"  idxTwo="22"  coef=".2948"/><qTerm  idx="-1"  idxOne="13"  idxTwo="25"  coef="-.5289"/><qTerm  idx="-1"  idxOne="13"  idxTwo="26"  coef="-.7476"/><qTerm  idx="-1"  idxOne="13"  idxTwo="27"  coef=".3785"/><qTerm  idx="-1"  idxOne="14"  idxTwo="14"  coef="-.8182"/><qTerm  idx="-1"  idxOne="14"  idxTwo="15"  coef=".145"/><qTerm  idx="-1"  idxOne="14"  idxTwo="16"  coef=".7848"/><qTerm  idx="-1"  idxOne="14"  idxTwo="17"  coef=".329"/><qTerm  idx="-1"  idxOne="14"  idxTwo="18"  coef=".4575"/><qTerm  idx="-1"  idxOne="14"  idxTwo="20"  coef=".2925"/><qTerm  idx="-1"  idxOne="14"  idxTwo="21"  coef=".6509"/><qTerm  idx="-1"  idxOne="14"  idxTwo="22"  coef="-.5194"/><qTerm  idx="-1"  idxOne="14"  idxTwo="24"  coef="-.5375"/><qTerm  idx="-1"  idxOne="14"  idxTwo="25"  coef="-.8567"/><qTerm  idx="-1"  idxOne="14"  idxTwo="27"  coef="-.7567"/><qTerm  idx="-1"  idxOne="14"  idxTwo="28"  coef="5.59e-2"/><qTerm  idx="-1"  idxOne="14"  idxTwo="29"  coef="-.5979"/><qTerm  idx="-1"  idxOne="15"  idxTwo="15"  coef="-.5328"/><qTerm  idx="-1"  idxOne="15"  idxTwo="17"  coef=".4108"/><qTerm  idx="-1"  idxOne="15"  idxTwo="19"  coef="-.9746"/><qTerm  idx="-1"  idxOne="15"  idxTwo="21"  coef="-.8816"/><qTerm  idx="-1"  idxOne="15"  idxTwo="23"  coef="-.6054"/><qTerm  idx="-1"  idxOne="15"  idxTwo="25"  coef=".8048"/><qTerm  idx="-1"  idxOne="16"  idxTwo="16"  coef="-.4608"/><qTerm  idx="-1"  idxOne="16"  idxTwo="18"  coef="-.5202"/><qTerm  idx="-1"  idxOne="16"  idxTwo="19"  coef="-1.26e-2"/><qTerm  idx="-1"  idxOne="16"  idxTwo="21"  coef=".4756"/><qTerm  idx="-1"  idxOne="16"  idxTwo="22"  coef="-.1092"/><qTerm  idx="-1"  idxOne="16"  idxTwo="23"  coef=".3646"/><qTerm  idx="-1"  idxOne="16"  idxTwo="25"  coef="-.604"/><qTerm  idx="-1"  idxOne="16"  idxTwo="26"  coef=".8765"/><qTerm  idx="-1"  idxOne="16"  idxTwo="27"  coef=".5905"/><qTerm  idx="-1"  idxOne="17"  idxTwo="21"  coef="-.5705"/><qTerm  idx="-1"  idxOne="17"  idxTwo="22"  coef="-.5678"/><qTerm  idx="-1"  idxOne="17"  idxTwo="24"  coef="-.9959"/><qTerm  idx="-1"  idxOne="17"  idxTwo="27"  coef="-7.73e-2"/><qTerm  idx="-1"  idxOne="17"  idxTwo="29"  coef="-.4033"/><qTerm  idx="-1"  idxOne="18"  idxTwo="18"  coef=".5307"/><qTerm  idx="-1"  idxOne="18"  idxTwo="20"  coef=".8639"/><qTerm  idx="-1"  idxOne="18"  idxTwo="24"  coef=".9249"/><qTerm  idx="-1"  idxOne="18"  idxTwo="25"  coef=".5844"/><qTerm  idx="-1"  idxOne="18"  idxTwo="28"  coef="-.3302"/><qTerm  idx="-1"  idxOne="18"  idxTwo="29"  coef="-.8971"/><qTerm  idx="-1"  idxOne="19"  idxTwo="19"  coef=".9343"/><qTerm  idx="-1"  idxOne="19"  idxTwo="20"  coef="-.4812"/><qTerm  idx="-1"  idxOne="19"  idxTwo="21"  coef="-2.24e-2"/><qTerm  idx="-1"  idxOne="19"  idxTwo="23"  coef="-3.81e-2"/><qTerm  idx="-1"  idxOne="19"  idxTwo="27"  coef="-.6702"/><qTerm  idx="-1"  idxOne="19"  idxTwo="28"  coef="7.65e-2"/><qTerm  idx="-1"  idxOne="20"  idxTwo="22"  coef="-.5192"/><qTerm  idx="-1"  idxOne="20"  idxTwo="25"  coef=".15"/><qTerm  idx="-1"  idxOne="20"  idxTwo="26"  coef=".7511"/><qTerm  idx="-1"  idxOne="20"  idxTwo="28"  coef=".2959"/><qTerm  idx="-1"  idxOne="21"  idxTwo="21"  coef=".6925"/><qTerm  idx="-1"  idxOne="21"  idxTwo="22"  coef="-.7939"/><qTerm  idx="-1"  idxOne="22"  idxTwo="22"  coef="-.4419"/><qTerm  idx="-1"  idxOne="22"  idxTwo="24"  coef="-.4714"/><qTerm  idx="-1"  idxOne="22"  idxTwo="26"  coef="1.46e-2"/><qTerm  idx="-1"  idxOne="22"  idxTwo="27"  coef=".9626"/><qTerm  idx="-1"  idxOne="22"  idxTwo="28"  coef="5.41e-2"/><qTerm  idx="-1"  idxOne="23"  idxTwo="26"  coef="-.7318"/><qTerm  idx="-1"  idxOne="23"  idxTwo="29"  coef="-.6666"/><qTerm  idx="-1"  idxOne="24"  idxTwo="24"  coef=".6844"/><qTerm  idx="-1"  idxOne="24"  idxTwo="28"  coef=".2667"/><qTerm  idx="-1"  idxOne="24"  idxTwo="29"  coef=".9428"/><qTerm  idx="-1"  idxOne="25"  idxTwo="25"  coef="-.8373"/><qTerm  idx="-1"  idxOne="25"  idxTwo="26"  coef=".1923"/><qTerm  idx="-1"  idxOne="25"  idxTwo="27"  coef=".9925"/><qTerm  idx="-1"  idxOne="25"  idxTwo="28"  coef="-.9806"/><qTerm  idx="-1"  idxOne="25"  idxTwo="29"  coef="-.9013"/><qTerm  idx="-1"  idxOne="26"  idxTwo="28"  coef="-.7989"/><qTerm  idx="-1"  idxOne="26"  idxTwo="29"  coef=".959"/><qTerm  idx="-1"  idxOne="27"  idxTwo="27"  coef=".6824"/><qTerm  idx="-1"  idxOne="28"  idxTwo="28"  coef="-9.39e-2"/><qTerm  idx="-1"  idxOne="28"  idxTwo="29"  coef=".9649"/><qTerm  idx="-1"  idxOne="29"  idxTwo="29"  coef=".887"/></quadraticCoefficients></instanceData></osil>
